17	4
14	15	15	15	
0	0	0	0	0	3	2	3	4	
7	1	6	4	9	3	10	11	17	
4	9	1	3	9	3	5	6	8	
1	3	4	8	5	3	11	12	13	
5	5	7	4	8	2	7	17	
175	2	9	1	7	3	10	17	17	
225	1	5	6	7	2	12	17	
200	8	6	8	3	3	9	14	15	
125	2	9	2	10	3	10	16	17	
150	9	5	10	7	1	17	
250	5	9	3	1	1	17	
50	7	5	5	8	2	14	17	
10	4	1	8	3	2	14	17	
4	1	1	9	7	2	17	17	
7	10	8	6	5	2	17	17	
5	1	7	6	10	3	17	17	17	
0	0	0	0	0	0	
